solving instance uflp nldep gunluk ../../../../../instances/uflp/gunluk/gunluk-20-40-8.txt square
Couenne 0.5.8 -- an Open-Source solver for Mixed Integer Nonlinear Optimization
Mailing list: couenne@list.coin-or.org
Instructions: http://www.coin-or.org/Couenne
couenne: 
ANALYSIS TEST: Couenne: new cutoff value 1.2894366494e+03 (0.192745 seconds)
NLP0012I 
              Num      Status      Obj             It       time                 Location
NLP0014I             1         OPT 234.37643       25 0.300483
NLP0014I             2         OPT 234.83635       29 0.245172
Couenne: new cutoff value 2.3483629844e+02 (0.779099 seconds)
Loaded instance "/tmp/jl_oiMvr7/model.nl"
Constraints:          880
Variables:            860 (20 integer)
Auxiliaries:           79 (0 integer)

Coin0506I Presolve 971 (-10) rows, 871 (-68) columns and 4261 (-78) elements
Clp0006I 0  Obj 0 Primal inf 1493.0407 (40)
Clp0006I 81  Obj 230.6268
Clp0000I Optimal - objective value 230.6268
Clp0032I Optimal objective 230.6267993 - 81 iterations time 0.012, Presolve 0.01
Clp0000I Optimal - objective value 230.6268
NLP Heuristic: time limit reached.
Clp0000I Optimal - objective value 230.6268
Optimality Based BT: 2 improved bounds
Probing: 0 improved bounds
Couenne: new cutoff value 2.3437656942e+02 (2.22225 seconds)
NLP Heuristic: no solution.
Cbc0031I 18 added rows had average density of 2
Cbc0013I At root node, 18 cuts changed objective from 230.6268 to 234.37657 in 13 passes
Cbc0014I Cut generator 0 (Couenne convexifier cuts) - 143 row cuts average 2.0 elements, 53 column cuts (53 active)
Cbc0010I After 0 nodes, 1 on tree, 1e+50 best solution, best possible -1.7976931e+308 (1.74 seconds)
Cbc0001I Search completed - best objective 1e+50, took 113 iterations and 2 nodes (1.75 seconds)
Cbc0035I Maximum depth 0, 0 variables fixed on reduced cost

 	"Finished"

Linearization cuts added at root node:        981
Linearization cuts added in total:            981  (separation time: 0.005014s)
Total solve time:                         1.76213s (1.76213s in branch-and-bound)
Lower bound:                              234.377
Upper bound:                              234.377  (gap: 0.00%)
Branch-and-bound nodes:                         2
Stats: /tmp/jl_oiMvr7/model.nl  860 [var]   20 [int]  880 [con]   79 [aux]    981 [root]      981 [tot] 0.005014 [sep]  1.76213 [time]  1.76382 [bb]         2.343766e+02 [lower]         2.343766e+02 [upper]       2 [nodes]
Performance of                           FBBT:	    0.01594s,       16 runs. fix:          0 shrnk:    33.3802 ubd:          0 2ubd:          0 infeas:          0
Performance of                           OBBT:	   0.326162s,        1 runs. fix:          0 shrnk:    3.88571 ubd:          0 2ubd:          0 infeas:          0
ERROR: LoadError: MathOptInterface.GetAttributeNotAllowed{MathOptInterface.ObjectiveBound}: Getting attribute MathOptInterface.ObjectiveBound() cannot be performed: AmplNLWriter.Optimizer does not support getting the attribute MathOptInterface.ObjectiveBound(). You may want to use a `CachingOptimizer` in `AUTOMATIC` mode or you may need to call `reset_optimizer` before doing this operation if the `CachingOptimizer` is in `MANUAL` mode.
Stacktrace:
  [1] get_fallback(model::AmplNLWriter.Optimizer, attr::MathOptInterface.ObjectiveBound)
    @ MathOptInterface ~/.julia/packages/MathOptInterface/gLl4d/src/attributes.jl:409
  [2] get(::AmplNLWriter.Optimizer, ::MathOptInterface.ObjectiveBound)
    @ MathOptInterface ~/.julia/packages/MathOptInterface/gLl4d/src/attributes.jl:390
  [3] _get_model_attribute(model::MathOptInterface.Utilities.CachingOptimizer{AmplNLWriter.Optimizer, MathOptInterface.Utilities.UniversalFallback{MathOptInterface.Utilities.Model{Float64}}}, attr::MathOptInterface.ObjectiveBound)
    @ MathOptInterface.Utilities ~/.julia/packages/MathOptInterface/gLl4d/src/Utilities/cachingoptimizer.jl:865
  [4] get(model::MathOptInterface.Utilities.CachingOptimizer{AmplNLWriter.Optimizer, MathOptInterface.Utilities.UniversalFallback{MathOptInterface.Utilities.Model{Float64}}}, attr::MathOptInterface.ObjectiveBound)
    @ MathOptInterface.Utilities ~/.julia/packages/MathOptInterface/gLl4d/src/Utilities/cachingoptimizer.jl:900
  [5] get(b::MathOptInterface.Bridges.LazyBridgeOptimizer{MathOptInterface.Utilities.CachingOptimizer{AmplNLWriter.Optimizer, MathOptInterface.Utilities.UniversalFallback{MathOptInterface.Utilities.Model{Float64}}}}, attr::MathOptInterface.ObjectiveBound)
    @ MathOptInterface.Bridges ~/.julia/packages/MathOptInterface/gLl4d/src/Bridges/bridge_optimizer.jl:889
  [6] _get_model_attribute(model::MathOptInterface.Utilities.CachingOptimizer{MathOptInterface.Bridges.LazyBridgeOptimizer{MathOptInterface.Utilities.CachingOptimizer{AmplNLWriter.Optimizer, MathOptInterface.Utilities.UniversalFallback{MathOptInterface.Utilities.Model{Float64}}}}, MathOptInterface.Utilities.UniversalFallback{MathOptInterface.Utilities.Model{Float64}}}, attr::MathOptInterface.ObjectiveBound)
    @ MathOptInterface.Utilities ~/.julia/packages/MathOptInterface/gLl4d/src/Utilities/cachingoptimizer.jl:865
  [7] get(model::MathOptInterface.Utilities.CachingOptimizer{MathOptInterface.Bridges.LazyBridgeOptimizer{MathOptInterface.Utilities.CachingOptimizer{AmplNLWriter.Optimizer, MathOptInterface.Utilities.UniversalFallback{MathOptInterface.Utilities.Model{Float64}}}}, MathOptInterface.Utilities.UniversalFallback{MathOptInterface.Utilities.Model{Float64}}}, attr::MathOptInterface.ObjectiveBound)
    @ MathOptInterface.Utilities ~/.julia/packages/MathOptInterface/gLl4d/src/Utilities/cachingoptimizer.jl:900
  [8] _moi_get_result(model::MathOptInterface.Utilities.CachingOptimizer{MathOptInterface.Bridges.LazyBridgeOptimizer{MathOptInterface.Utilities.CachingOptimizer{AmplNLWriter.Optimizer, MathOptInterface.Utilities.UniversalFallback{MathOptInterface.Utilities.Model{Float64}}}}, MathOptInterface.Utilities.UniversalFallback{MathOptInterface.Utilities.Model{Float64}}}, args::MathOptInterface.ObjectiveBound)
    @ JuMP ~/.julia/packages/JuMP/i68GU/src/optimizer_interface.jl:1053
  [9] get(model::JuMP.Model, attr::MathOptInterface.ObjectiveBound)
    @ JuMP ~/.julia/packages/JuMP/i68GU/src/optimizer_interface.jl:1073
 [10] objective_bound(model::JuMP.Model)
    @ JuMP ~/.julia/packages/JuMP/i68GU/src/objective.jl:78
 [11] nl_uflp_nldep(filename::String, cost::Symbol, solver::AmplNLWriter.Optimizer, solver_params::Vector{Any}; solve::Bool, write_nl::Bool, with_cap_constraint::Bool)
    @ IterativePWLB ~/git/ipwlb/code/sources/IterativePWLB/src/nlsolver.jl:783
 [12] top-level scope
    @ ~/git/ipwlb/code/sources/IterativePWLB/test/couenne/uflp_nldep/script.jl:15
in expression starting at /home/ccontard/git/ipwlb/code/sources/IterativePWLB/test/couenne/uflp_nldep/script.jl:15
Generating Gunluk and Lee data file ../../../../../instances/uflp/gunluk/gunluk-20-40-8.txt
